50

98 4 301
96 1 293
96 29 289
87 25 352
87 18 339
87 20 360
86 25 296
85 6 288
83 3 344
83 24 338
82 8 254
81 1 260
77 19 330
74 7 296
67 5 219
65 16 285
64 13 283
64 5 306
63 16 306
60 14 310
57 2 223
57 5 234
56 6 341
55 11 354
50 6 309
49 5 340
46 2 214
43 7 335
43 5 303
42 1 271
37 2 341
33 9 331
31 5 338
31 8 267
27 9 278
27 1 215
26 2 116
25 1 340
23 4 356
23 2 232
19 5 138
18 4 166
15 2 224
13 1 311
10 2 105
9 1 32
6 1 184
3 1 277
2 1 292
1 1 226
